c read Graph
c width = 7
c time = 40 ms
c width = 3
c time = 53 ms
c width = 3
c time = 5080 ms
s td 21 4 24
b 1 1 2 9
b 2 2 3 9 10
b 3 6 7 15 16
b 4 3 9 10 18
b 5 3 10 11 18
b 6 6 15 16 23
b 7 3 11 18 19
b 8 3 11 19 20
b 9 6 15 22 23
b 10 3 4 11 20
b 11 4 11 12 20
b 12 4 12 13 20
b 13 6 14 15 22
b 14 4 6 13 20
b 15 6 13 14 22
b 16 6 13 20 22
b 17 13 20 21 22
b 18 4 5 6 13
b 19 16 23 24
b 20 9 17 18
b 21 7 8 16
1 2
2 4
3 21
3 6
4 20
4 5
5 7
6 19
6 9
7 8
8 10
9 13
10 11
11 12
12 14
13 15
14 18
14 16
15 16
16 17
